3 32 1 10
6 18 5 13 6 18 6 20 20 13 16 15 18 5 15 10 7 19 19 10 10 10 4 7 15 17 6 14 17 14 15 14 
4.64 1.09 7.35 11.8 11.44 13.1 10.69 14.65 8.43 1.24 3.43 8.15 5.19 2.32 11.12 3.68 7.31 1.48 11.49 8.6 10.95 14.29 5.69 2.45 1.59 8.04 10.89 9.96 5.69 15.19 9.04 9.95 
8 8 8 8 8 8 8 8 8 8 8 8 8 8 8 8 8 8 8 8 8 8 8 8 8 8 8 8 8 8 8 8 
2 9.69 2.34 2.45 6.78 6.18 10.71 6.97 1.88 7.03 12.39 8.18 13.62 5.85 10.76 11.28 11.99 12.67 3.82 3.6 1.6 3.65 5.27 15.66 2.01 0.43 6.66 8.51 12.18 1.03 4.5 1.71 
1 1 1 1 1 1 1 1 1 1 1 1 1 1 1 1 1 1 1 1 1 1 1 1 1 1 1 1 1 1 1 1 
1 1 1 1 1 1 1 1 1 1 1 1 1 1 1 1 1 1 1 1 1 1 1 1 1 1 1 1 1 1 1 1 
1 1 1 1 1 1 1 1 1 1 1 1 1 1 1 1 1 1 1 1 1 1 1 1 1 1 1 1 1 1 1 1 
0.01 0.01 0.01 0.01 0.01 0.01 0.01 0.01 0.01 0.01 0.01 0.01 0.01 0.01 0.01 0.01 0.01 0.01 0.01 0.01 0.01 0.01 0.01 0.01 0.01 0.01 0.01 0.01 0.01 0.01 0.01 0.01 
0.02 0.02 0.02 0.02 0.02 0.02 0.02 0.02 0.02 0.02 0.02 0.02 0.02 0.02 0.02 0.02 0.02 0.02 0.02 0.02 0.02 0.02 0.02 0.02 0.02 0.02 0.02 0.02 0.02 0.02 0.02 0.02 
1 1 1 1 1 1 1 1 1 1 1 1 1 1 1 1 1 1 1 1 1 1 1 1 1 1 1 1 1 1 1 1 
